Copyright (C) 2013-2015, Filipe Brandao
Build (method = -2)
  #dp: 831
  Step-3' Graph: 34 vertices and 190 arcs (0.00s)
  Step-4' Graph: 29 vertices and 180 arcs (0.00s)
  #V4/#V3 = 0.85
  #A4/#A3 = 0.95
Ready! (0.00s)
Optimize a model with 96 rows, 181 columns and 491 nonzeros
Presolve removed 50 rows and 52 columns
Presolve time: 0.00s
Presolved: 46 rows, 129 columns, 332 nonzeros
Variable types: 0 continuous, 129 integer (16 binary)
Found heuristic solution: objective 191.0000000
Found heuristic solution: objective 168.0000000
Found heuristic solution: objective 146.0000000
Optimize a model with 46 rows, 129 columns and 332 nonzeros
Presolved: 46 rows, 129 columns, 332 nonzeros

Root barrier log...

Ordering time: 0.00s

Barrier statistics:
 AA' NZ     : 1.560e+02
 Factor NZ  : 5.750e+02
 Factor Ops : 8.695e+03 (less than 1 second per iteration)
 Threads    : 1

                  Objective                Residual
Iter       Primal          Dual         Primal    Dual     Compl     Time
   0   1.20710853e+03 -9.35099574e+02  9.46e+02 1.63e-01  2.75e+01     0s
   1   3.40910201e+02 -2.31338450e+02  9.95e+01 4.44e-16  3.67e+00     0s
   2   1.82231854e+02  8.86970088e+01  3.17e+00 9.44e-16  3.64e-01     0s
   3   1.55144138e+02  1.25183724e+02  1.86e-01 4.44e-16  1.10e-01     0s
   4   1.44875658e+02  1.40084655e+02  2.01e-02 3.33e-16  1.75e-02     0s
   5   1.43361703e+02  1.42215097e+02  2.94e-03 3.05e-16  4.17e-03     0s
   6   1.43067594e+02  1.42916992e+02  4.48e-04 4.44e-16  5.48e-04     0s
   7   1.43000056e+02  1.42999844e+02  5.48e-07 3.94e-16  7.70e-07     0s
   8   1.43000000e+02  1.43000000e+02  1.05e-13 4.44e-16  7.70e-10     0s
   9   1.43000000e+02  1.43000000e+02  2.66e-13 3.33e-16  7.70e-13     0s

Barrier solved model in 9 iterations and 0.00 seconds
Optimal objective 1.43000000e+02


Root relaxation: objective 1.430000e+02, 35 iterations, 0.00 seconds

    Nodes    |    Current Node    |     Objective Bounds      |     Work
 Expl Unexpl |  Obj  Depth IntInf | Incumbent    BestBd   Gap | It/Node Time

*    0     0               0     143.0000000  143.00000  0.00%     -    0s

Explored 0 nodes (35 simplex iterations) in 0.00 seconds
Thread count was 1 (of 4 available processors)

Optimal solution found (tolerance 0.00e+00)
Best objective 1.430000000000e+02, best bound 1.430000000000e+02, gap 0.0%
Preprocessing time: 0.00 seconds
Gurobi run time: 0.00 seconds
Total run time: 0.00 seconds
Objective: 143
Solution:
7 x [i=1]
5 x [i=2]
2 x [i=3]
1 x [i=4]
2 x [i=5]
2 x [i=6]
3 x [i=7]
1 x [i=8]
6 x [i=9]
1 x [i=10]
1 x [i=11]
4 x [i=12]
4 x [i=13]
3 x [i=14]
2 x [i=15]
1 x [i=16]
1 x [i=17]
1 x [i=18]
3 x [i=19]
4 x [i=20]
3 x [i=21]
3 x [i=22]
5 x [i=23]
4 x [i=24]
4 x [i=25]
5 x [i=26]
3 x [i=27]
7 x [i=28]
2 x [i=29, i=66]
1 x [i=30, i=65]
1 x [i=31, i=65]
3 x [i=32, i=63]
1 x [i=33, i=65]
3 x [i=34, i=62]
5 x [i=35, i=64]
1 x [i=35, i=65]
4 x [i=36, i=61]
1 x [i=37, i=58]
3 x [i=38, i=57]
1 x [i=38, i=58]
5 x [i=39, i=56]
3 x [i=40, i=55]
1 x [i=41, i=58]
2 x [i=42, i=53]
2 x [i=42, i=54]
1 x [i=42, i=59]
1 x [i=43, i=52]
3 x [i=44, i=50]
3 x [i=45, i=51]
3 x [i=46, i=48]
1 x [i=46, i=49]
1 x [i=46, i=50]
1 x [i=47, i=52]
1 x [i=60, i=67, i=67]
1 x [i=62, i=63, i=67]
